(set-logic QF_S)
(declare-fun var_0xINPUT_100365 () String)
(assert (and (not (= var_0xINPUT_100365 "A9jaaDKZbG")) (= (len var_0xINPUT_100365) 0) (not (= var_0xINPUT_100365 "Example:")) (not (= var_0xINPUT_100365 "A9jaaDKZbG"))))
(check-sat var_0xINPUT_100365)